c *********************************
c * Circuit generated by BenCGen
c *
c * Magnitude_13
c *
c * Ports with 1 gate(s): 15
c * Ports with 2 gate(s): 29
c * Ports with 3 gate(s): 1
c * Ports with 4 gate(s): 1
c * Ports with 5 gate(s): 1
c * Ports with 6 gate(s): 1
c * Ports with 7 gate(s): 1
c * Ports with 8 gate(s): 1
c * Ports with 9 gate(s): 1
c * Ports with 10 gate(s): 1
c * Ports with 11 gate(s): 1
c * Ports with 12 gate(s): 1
c * Ports with 13 gate(s): 3
c * Total gates: 57
c *********************************
p cnf 83 257
1 31 0
-1 -31 0
1 -30 0
31 -30 0
-1 -31 30 0
14 32 0
-14 -32 0
15 33 0
-15 -33 0
16 34 0
-16 -34 0
17 35 0
-17 -35 0
18 36 0
-18 -36 0
19 37 0
-19 -37 0
20 38 0
-20 -38 0
21 39 0
-21 -39 0
22 40 0
-22 -40 0
23 41 0
-23 -41 0
24 42 0
-24 -42 0
25 43 0
-25 -43 0
26 44 0
-26 -44 0
1 14 58 0
-1 14 -58 0
1 -14 -58 0
-1 -14 58 0
1 -45 0
32 -45 0
-1 -32 45 0
2 15 59 0
-2 15 -59 0
2 -15 -59 0
-2 -15 59 0
2 -46 0
33 -46 0
-2 -33 46 0
3 16 60 0
-3 16 -60 0
3 -16 -60 0
-3 -16 60 0
3 -47 0
34 -47 0
-3 -34 47 0
4 17 61 0
-4 17 -61 0
4 -17 -61 0
-4 -17 61 0
4 -48 0
35 -48 0
-4 -35 48 0
5 18 62 0
-5 18 -62 0
5 -18 -62 0
-5 -18 62 0
5 -49 0
36 -49 0
-5 -36 49 0
6 19 63 0
-6 19 -63 0
6 -19 -63 0
-6 -19 63 0
6 -50 0
37 -50 0
-6 -37 50 0
7 20 64 0
-7 20 -64 0
7 -20 -64 0
-7 -20 64 0
7 -51 0
38 -51 0
-7 -38 51 0
8 21 65 0
-8 21 -65 0
8 -21 -65 0
-8 -21 65 0
8 -52 0
39 -52 0
-8 -39 52 0
9 22 66 0
-9 22 -66 0
9 -22 -66 0
-9 -22 66 0
9 -53 0
40 -53 0
-9 -40 53 0
10 23 67 0
-10 23 -67 0
10 -23 -67 0
-10 -23 67 0
10 -54 0
41 -54 0
-10 -41 54 0
11 24 68 0
-11 24 -68 0
11 -24 -68 0
-11 -24 68 0
11 -55 0
42 -55 0
-11 -42 55 0
12 25 69 0
-12 25 -69 0
12 -25 -69 0
-12 -25 69 0
12 -56 0
43 -56 0
-12 -43 56 0
13 26 70 0
-13 26 -70 0
13 -26 -70 0
-13 -26 70 0
13 -57 0
44 -57 0
-13 -44 57 0
45 -71 0
59 -71 0
60 -71 0
61 -71 0
62 -71 0
63 -71 0
64 -71 0
65 -71 0
66 -71 0
67 -71 0
68 -71 0
69 -71 0
70 -71 0
-45 -59 -60 -61 -62 -63 -64 -65 -66 -67 -68 -69 -70 71 0
46 -72 0
60 -72 0
61 -72 0
62 -72 0
63 -72 0
64 -72 0
65 -72 0
66 -72 0
67 -72 0
68 -72 0
69 -72 0
70 -72 0
-46 -60 -61 -62 -63 -64 -65 -66 -67 -68 -69 -70 72 0
47 -73 0
61 -73 0
62 -73 0
63 -73 0
64 -73 0
65 -73 0
66 -73 0
67 -73 0
68 -73 0
69 -73 0
70 -73 0
-47 -61 -62 -63 -64 -65 -66 -67 -68 -69 -70 73 0
48 -74 0
62 -74 0
63 -74 0
64 -74 0
65 -74 0
66 -74 0
67 -74 0
68 -74 0
69 -74 0
70 -74 0
-48 -62 -63 -64 -65 -66 -67 -68 -69 -70 74 0
49 -75 0
63 -75 0
64 -75 0
65 -75 0
66 -75 0
67 -75 0
68 -75 0
69 -75 0
70 -75 0
-49 -63 -64 -65 -66 -67 -68 -69 -70 75 0
50 -76 0
64 -76 0
65 -76 0
66 -76 0
67 -76 0
68 -76 0
69 -76 0
70 -76 0
-50 -64 -65 -66 -67 -68 -69 -70 76 0
51 -77 0
65 -77 0
66 -77 0
67 -77 0
68 -77 0
69 -77 0
70 -77 0
-51 -65 -66 -67 -68 -69 -70 77 0
52 -78 0
66 -78 0
67 -78 0
68 -78 0
69 -78 0
70 -78 0
-52 -66 -67 -68 -69 -70 78 0
53 -79 0
67 -79 0
68 -79 0
69 -79 0
70 -79 0
-53 -67 -68 -69 -70 79 0
54 -80 0
68 -80 0
69 -80 0
70 -80 0
-54 -68 -69 -70 80 0
55 -81 0
69 -81 0
70 -81 0
-55 -69 -70 81 0
56 -82 0
70 -82 0
-56 -70 82 0
57 -83 0
-57 83 0
-71 27 0
-72 27 0
-73 27 0
-74 27 0
-75 27 0
-76 27 0
-77 27 0
-78 27 0
-79 27 0
-80 27 0
-81 27 0
-82 27 0
-83 27 0
71 72 73 74 75 76 77 78 79 80 81 82 83 -27 0
58 -28 0
59 -28 0
60 -28 0
61 -28 0
62 -28 0
63 -28 0
64 -28 0
65 -28 0
66 -28 0
67 -28 0
68 -28 0
69 -28 0
70 -28 0
-58 -59 -60 -61 -62 -63 -64 -65 -66 -67 -68 -69 -70 28 0
-27 -29 0
-28 -29 0
27 28 29 0
